NAME : berlin52-C-3-1-c.7984.tour
COMMENT : Length = 7984
COMMENT : Found by LKH-3 [Keld Helsgaun] Tue Jul 30 13:14:05 2024
TYPE : TOUR
DIMENSION : 52
TOUR_SECTION
1
2
7
42
30
21
17
3
18
31
23
20
50
29
16
46
44
34
35
36
39
40
37
38
48
24
5
15
6
4
25
12
28
27
26
47
13
14
52
11
51
33
43
10
9
8
41
19
45
32
49
22
-1
EOF
